p edge 1377 1337
e 1 2
e 1 3
e 1 4
e 1 5
e 1 6
e 1 7
e 1 8
e 1 9
e 1 10
e 1 11
e 1 12
e 1 13
e 1 14
e 1 15
e 1 16
e 1 17
e 1 18
e 1 19
e 1 20
e 1 21
e 1 22
e 1 23
e 1 24
e 1 25
e 1 26
e 1 27
e 1 28
e 1 29
e 1 30
e 1 31
e 1 32
e 1 33
e 34 35
e 34 36
e 34 37
e 34 38
e 34 39
e 34 40
e 34 41
e 34 42
e 34 43
e 34 44
e 34 45
e 34 46
e 34 47
e 34 48
e 34 49
e 34 50
e 34 51
e 34 52
e 34 53
e 34 54
e 34 55
e 34 56
e 34 57
e 34 58
e 34 59
e 34 60
e 34 61
e 34 62
e 34 63
e 34 64
e 34 65
e 34 66
e 34 67
e 34 68
e 34 69
e 34 70
e 34 71
e 72 73
e 72 74
e 72 75
e 72 76
e 72 77
e 72 78
e 72 79
e 72 80
e 72 81
e 72 82
e 72 83
e 72 84
e 72 85
e 72 86
e 72 87
e 72 88
e 72 89
e 72 90
e 72 91
e 72 92
e 72 93
e 72 94
e 72 95
e 72 96
e 72 97
e 72 98
e 72 99
e 72 100
e 72 101
e 72 102
e 72 103
e 72 104
e 72 105
e 72 106
e 72 107
e 72 108
e 72 109
e 72 110
e 72 111
e 72 112
e 72 113
e 72 114
e 72 115
e 72 116
e 72 117
e 72 118
e 72 119
e 72 120
e 72 121
e 72 122
e 72 123
e 72 124
e 72 125
e 72 126
e 72 127
e 72 128
e 72 129
e 72 130
e 72 131
e 72 132
e 133 134
e 133 135
e 133 136
e 133 137
e 133 138
e 133 139
e 133 140
e 133 141
e 133 142
e 133 143
e 133 144
e 133 145
e 133 146
e 133 147
e 133 148
e 133 149
e 133 150
e 133 151
e 133 152
e 133 153
e 133 154
e 133 155
e 133 156
e 133 157
e 133 158
e 133 159
e 133 160
e 133 161
e 133 162
e 133 163
e 133 164
e 133 165
e 133 166
e 133 167
e 133 168
e 133 169
e 133 170
e 133 171
e 172 173
e 172 174
e 172 175
e 172 176
e 172 177
e 172 178
e 172 179
e 172 180
e 172 181
e 172 182
e 172 183
e 172 184
e 172 185
e 172 186
e 172 187
e 172 188
e 172 189
e 172 190
e 172 191
e 172 192
e 172 193
e 172 194
e 172 195
e 172 196
e 172 197
e 172 198
e 172 199
e 172 200
e 172 201
e 172 202
e 172 203
e 172 204
e 172 205
e 172 206
e 172 207
e 172 208
e 172 209
e 172 210
e 172 211
e 212 213
e 212 214
e 212 215
e 212 216
e 212 217
e 212 218
e 212 219
e 212 220
e 212 221
e 212 222
e 212 223
e 212 224
e 212 225
e 212 226
e 212 227
e 212 228
e 229 230
e 229 231
e 229 232
e 229 233
e 229 234
e 229 235
e 229 236
e 229 237
e 229 238
e 229 239
e 229 240
e 229 241
e 229 242
e 229 243
e 229 244
e 229 245
e 229 246
e 229 247
e 229 248
e 229 249
e 229 250
e 229 251
e 229 252
e 229 253
e 229 254
e 229 255
e 229 256
e 229 257
e 229 258
e 229 259
e 229 260
e 229 261
e 229 262
e 229 263
e 229 264
e 229 265
e 229 266
e 229 267
e 229 268
e 229 269
e 229 270
e 229 271
e 229 272
e 229 273
e 229 274
e 229 275
e 229 276
e 229 277
e 229 278
e 229 279
e 229 280
e 229 281
e 229 282
e 229 283
e 229 284
e 229 285
e 229 286
e 287 288
e 287 289
e 287 290
e 287 291
e 287 292
e 287 293
e 287 294
e 287 295
e 287 296
e 287 297
e 287 298
e 287 299
e 287 300
e 287 301
e 287 302
e 287 303
e 287 304
e 287 305
e 287 306
e 287 307
e 287 308
e 287 309
e 287 310
e 287 311
e 287 312
e 287 313
e 287 314
e 287 315
e 287 316
e 287 317
e 287 318
e 319 320
e 319 321
e 319 322
e 319 323
e 319 324
e 319 325
e 319 326
e 319 327
e 319 328
e 319 329
e 319 330
e 319 331
e 319 332
e 319 333
e 319 334
e 319 335
e 319 336
e 319 337
e 319 338
e 319 339
e 319 340
e 319 341
e 319 342
e 319 343
e 319 344
e 319 345
e 319 346
e 319 347
e 348 349
e 348 350
e 348 351
e 348 352
e 348 353
e 348 354
e 348 355
e 348 356
e 348 357
e 348 358
e 348 359
e 348 360
e 348 361
e 348 362
e 348 363
e 348 364
e 348 365
e 348 366
e 348 367
e 348 368
e 348 369
e 348 370
e 348 371
e 348 372
e 348 373
e 348 374
e 348 375
e 376 377
e 376 378
e 376 379
e 376 380
e 376 381
e 376 382
e 376 383
e 376 384
e 376 385
e 376 386
e 376 387
e 376 388
e 389 390
e 389 391
e 389 392
e 389 393
e 389 394
e 389 395
e 389 396
e 389 397
e 389 398
e 389 399
e 389 400
e 389 401
e 389 402
e 389 403
e 389 404
e 389 405
e 389 406
e 389 407
e 389 408
e 389 409
e 389 410
e 389 411
e 389 412
e 389 413
e 389 414
e 389 415
e 389 416
e 389 417
e 389 418
e 389 419
e 389 420
e 389 421
e 389 422
e 389 423
e 389 424
e 389 425
e 389 426
e 427 428
e 427 429
e 427 430
e 427 431
e 427 432
e 427 433
e 427 434
e 427 435
e 427 436
e 427 437
e 427 438
e 427 439
e 427 440
e 427 441
e 427 442
e 427 443
e 427 444
e 427 445
e 427 446
e 427 447
e 427 448
e 427 449
e 427 450
e 427 451
e 427 452
e 427 453
e 427 454
e 427 455
e 427 456
e 427 457
e 427 458
e 427 459
e 427 460
e 427 461
e 427 462
e 427 463
e 427 464
e 427 465
e 427 466
e 427 467
e 427 468
e 427 469
e 427 470
e 471 472
e 471 473
e 471 474
e 471 475
e 471 476
e 471 477
e 471 478
e 471 479
e 471 480
e 471 481
e 471 482
e 471 483
e 471 484
e 471 485
e 471 486
e 471 487
e 471 488
e 471 489
e 471 490
e 471 491
e 471 492
e 471 493
e 471 494
e 471 495
e 471 496
e 471 497
e 471 498
e 471 499
e 471 500
e 471 501
e 471 502
e 471 503
e 471 504
e 505 506
e 505 507
e 505 508
e 505 509
e 505 510
e 505 511
e 505 512
e 505 513
e 505 514
e 505 515
e 505 516
e 505 517
e 505 518
e 505 519
e 505 520
e 505 521
e 505 522
e 505 523
e 505 524
e 505 525
e 505 526
e 505 527
e 505 528
e 505 529
e 505 530
e 505 531
e 505 532
e 505 533
e 505 534
e 505 535
e 505 536
e 505 537
e 538 539
e 538 540
e 538 541
e 538 542
e 538 543
e 538 544
e 538 545
e 538 546
e 538 547
e 538 548
e 538 549
e 538 550
e 538 551
e 538 552
e 538 553
e 538 554
e 538 555
e 538 556
e 538 557
e 538 558
e 538 559
e 538 560
e 538 561
e 538 562
e 538 563
e 538 564
e 538 565
e 566 567
e 566 568
e 566 569
e 566 570
e 566 571
e 566 572
e 566 573
e 566 574
e 566 575
e 566 576
e 566 577
e 566 578
e 566 579
e 566 580
e 566 581
e 566 582
e 566 583
e 566 584
e 566 585
e 566 586
e 566 587
e 566 588
e 566 589
e 566 590
e 566 591
e 566 592
e 566 593
e 566 594
e 566 595
e 566 596
e 566 597
e 566 598
e 566 599
e 566 600
e 566 601
e 566 602
e 566 603
e 566 604
e 566 605
e 566 606
e 566 607
e 566 608
e 566 609
e 566 610
e 566 611
e 566 612
e 566 613
e 566 614
e 566 615
e 566 616
e 566 617
e 566 618
e 566 619
e 566 620
e 566 621
e 566 622
e 566 623
e 566 624
e 566 625
e 626 627
e 626 628
e 626 629
e 626 630
e 626 631
e 626 632
e 626 633
e 626 634
e 626 635
e 626 636
e 637 638
e 637 639
e 637 640
e 637 641
e 637 642
e 637 643
e 637 644
e 637 645
e 637 646
e 637 647
e 637 648
e 637 649
e 637 650
e 637 651
e 637 652
e 637 653
e 637 654
e 637 655
e 637 656
e 637 657
e 637 658
e 637 659
e 637 660
e 637 661
e 637 662
e 637 663
e 637 664
e 637 665
e 637 666
e 637 667
e 637 668
e 637 669
e 637 670
e 637 671
e 637 672
e 637 673
e 637 674
e 637 675
e 637 676
e 637 677
e 637 678
e 637 679
e 637 680
e 637 681
e 637 682
e 683 684
e 683 685
e 683 686
e 683 687
e 683 688
e 683 689
e 683 690
e 683 691
e 683 692
e 683 693
e 683 694
e 683 695
e 683 696
e 683 697
e 683 698
e 683 699
e 700 701
e 700 702
e 700 703
e 700 704
e 700 705
e 700 706
e 700 707
e 700 708
e 700 709
e 700 710
e 700 711
e 700 712
e 700 713
e 700 714
e 700 715
e 700 716
e 700 717
e 700 718
e 700 719
e 700 720
e 700 721
e 700 722
e 700 723
e 700 724
e 700 725
e 700 726
e 700 727
e 700 728
e 700 729
e 730 731
e 730 732
e 730 733
e 730 734
e 730 735
e 730 736
e 730 737
e 730 738
e 730 739
e 730 740
e 730 741
e 730 742
e 730 743
e 730 744
e 730 745
e 730 746
e 730 747
e 748 749
e 748 750
e 748 751
e 748 752
e 748 753
e 748 754
e 748 755
e 748 756
e 748 757
e 748 758
e 748 759
e 748 760
e 748 761
e 748 762
e 748 763
e 748 764
e 748 765
e 748 766
e 748 767
e 748 768
e 748 769
e 748 770
e 748 771
e 748 772
e 748 773
e 748 774
e 748 775
e 776 777
e 776 778
e 776 779
e 776 780
e 776 781
e 776 782
e 776 783
e 776 784
e 776 785
e 776 786
e 776 787
e 776 788
e 776 789
e 776 790
e 776 791
e 776 792
e 776 793
e 776 794
e 776 795
e 776 796
e 776 797
e 776 798
e 776 799
e 776 800
e 776 801
e 776 802
e 776 803
e 776 804
e 776 805
e 776 806
e 776 807
e 776 808
e 776 809
e 776 810
e 776 811
e 776 812
e 776 813
e 776 814
e 776 815
e 776 816
e 776 817
e 776 818
e 776 819
e 776 820
e 776 821
e 776 822
e 776 823
e 776 824
e 776 825
e 776 826
e 776 827
e 776 828
e 776 829
e 776 830
e 776 831
e 776 832
e 833 834
e 833 835
e 833 836
e 833 837
e 833 838
e 833 839
e 833 840
e 833 841
e 833 842
e 833 843
e 833 844
e 833 845
e 833 846
e 833 847
e 833 848
e 833 849
e 833 850
e 833 851
e 833 852
e 833 853
e 833 854
e 833 855
e 833 856
e 833 857
e 833 858
e 833 859
e 833 860
e 833 861
e 833 862
e 833 863
e 833 864
e 833 865
e 833 866
e 833 867
e 833 868
e 833 869
e 833 870
e 833 871
e 833 872
e 833 873
e 833 874
e 833 875
e 833 876
e 833 877
e 833 878
e 833 879
e 833 880
e 833 881
e 833 882
e 883 884
e 883 885
e 883 886
e 883 887
e 883 888
e 883 889
e 883 890
e 883 891
e 883 892
e 883 893
e 883 894
e 883 895
e 883 896
e 883 897
e 883 898
e 883 899
e 883 900
e 883 901
e 883 902
e 883 903
e 883 904
e 883 905
e 883 906
e 883 907
e 883 908
e 883 909
e 883 910
e 883 911
e 883 912
e 883 913
e 883 914
e 883 915
e 883 916
e 883 917
e 883 918
e 883 919
e 883 920
e 883 921
e 883 922
e 883 923
e 883 924
e 883 925
e 883 926
e 883 927
e 883 928
e 883 929
e 930 931
e 930 932
e 930 933
e 930 934
e 930 935
e 930 936
e 930 937
e 930 938
e 930 939
e 930 940
e 930 941
e 930 942
e 930 943
e 930 944
e 930 945
e 930 946
e 930 947
e 930 948
e 930 949
e 930 950
e 951 952
e 951 953
e 951 954
e 951 955
e 951 956
e 951 957
e 951 958
e 951 959
e 951 960
e 951 961
e 951 962
e 951 963
e 951 964
e 951 965
e 951 966
e 951 967
e 951 968
e 951 969
e 951 970
e 951 971
e 951 972
e 951 973
e 951 974
e 951 975
e 951 976
e 951 977
e 978 979
e 978 980
e 978 981
e 978 982
e 978 983
e 978 984
e 978 985
e 978 986
e 978 987
e 978 988
e 978 989
e 978 990
e 978 991
e 978 992
e 978 993
e 978 994
e 978 995
e 978 996
e 978 997
e 978 998
e 978 999
e 978 1000
e 978 1001
e 978 1002
e 978 1003
e 978 1004
e 978 1005
e 978 1006
e 978 1007
e 978 1008
e 978 1009
e 1010 1011
e 1010 1012
e 1010 1013
e 1010 1014
e 1010 1015
e 1010 1016
e 1010 1017
e 1010 1018
e 1010 1019
e 1010 1020
e 1010 1021
e 1010 1022
e 1010 1023
e 1010 1024
e 1010 1025
e 1010 1026
e 1010 1027
e 1010 1028
e 1010 1029
e 1010 1030
e 1010 1031
e 1010 1032
e 1010 1033
e 1010 1034
e 1010 1035
e 1010 1036
e 1010 1037
e 1010 1038
e 1010 1039
e 1010 1040
e 1041 1042
e 1041 1043
e 1041 1044
e 1041 1045
e 1041 1046
e 1041 1047
e 1041 1048
e 1041 1049
e 1041 1050
e 1041 1051
e 1041 1052
e 1041 1053
e 1041 1054
e 1041 1055
e 1041 1056
e 1041 1057
e 1041 1058
e 1041 1059
e 1041 1060
e 1041 1061
e 1041 1062
e 1041 1063
e 1041 1064
e 1041 1065
e 1041 1066
e 1041 1067
e 1041 1068
e 1041 1069
e 1041 1070
e 1041 1071
e 1041 1072
e 1041 1073
e 1041 1074
e 1041 1075
e 1041 1076
e 1041 1077
e 1041 1078
e 1041 1079
e 1041 1080
e 1041 1081
e 1041 1082
e 1041 1083
e 1041 1084
e 1041 1085
e 1041 1086
e 1041 1087
e 1041 1088
e 1041 1089
e 1041 1090
e 1041 1091
e 1041 1092
e 1041 1093
e 1041 1094
e 1041 1095
e 1041 1096
e 1097 1098
e 1097 1099
e 1097 1100
e 1097 1101
e 1097 1102
e 1097 1103
e 1097 1104
e 1097 1105
e 1097 1106
e 1097 1107
e 1097 1108
e 1097 1109
e 1097 1110
e 1097 1111
e 1097 1112
e 1097 1113
e 1097 1114
e 1097 1115
e 1097 1116
e 1097 1117
e 1118 1119
e 1118 1120
e 1118 1121
e 1118 1122
e 1118 1123
e 1118 1124
e 1118 1125
e 1118 1126
e 1118 1127
e 1118 1128
e 1118 1129
e 1118 1130
e 1118 1131
e 1132 1133
e 1132 1134
e 1132 1135
e 1132 1136
e 1132 1137
e 1132 1138
e 1132 1139
e 1132 1140
e 1132 1141
e 1132 1142
e 1132 1143
e 1132 1144
e 1132 1145
e 1132 1146
e 1132 1147
e 1132 1148
e 1132 1149
e 1132 1150
e 1132 1151
e 1132 1152
e 1132 1153
e 1132 1154
e 1132 1155
e 1132 1156
e 1132 1157
e 1132 1158
e 1132 1159
e 1132 1160
e 1132 1161
e 1132 1162
e 1132 1163
e 1132 1164
e 1132 1165
e 1132 1166
e 1132 1167
e 1168 1169
e 1168 1170
e 1168 1171
e 1168 1172
e 1168 1173
e 1168 1174
e 1168 1175
e 1168 1176
e 1168 1177
e 1168 1178
e 1168 1179
e 1168 1180
e 1168 1181
e 1168 1182
e 1168 1183
e 1168 1184
e 1168 1185
e 1168 1186
e 1187 1188
e 1187 1189
e 1187 1190
e 1187 1191
e 1187 1192
e 1187 1193
e 1187 1194
e 1187 1195
e 1187 1196
e 1187 1197
e 1187 1198
e 1187 1199
e 1187 1200
e 1187 1201
e 1187 1202
e 1187 1203
e 1187 1204
e 1187 1205
e 1187 1206
e 1187 1207
e 1187 1208
e 1187 1209
e 1187 1210
e 1187 1211
e 1187 1212
e 1187 1213
e 1187 1214
e 1187 1215
e 1187 1216
e 1187 1217
e 1187 1218
e 1187 1219
e 1187 1220
e 1187 1221
e 1187 1222
e 1187 1223
e 1187 1224
e 1187 1225
e 1187 1226
e 1187 1227
e 1187 1228
e 1187 1229
e 1187 1230
e 1187 1231
e 1187 1232
e 1233 1234
e 1233 1235
e 1233 1236
e 1233 1237
e 1233 1238
e 1233 1239
e 1233 1240
e 1233 1241
e 1233 1242
e 1233 1243
e 1233 1244
e 1233 1245
e 1233 1246
e 1233 1247
e 1233 1248
e 1233 1249
e 1233 1250
e 1233 1251
e 1233 1252
e 1233 1253
e 1233 1254
e 1233 1255
e 1233 1256
e 1233 1257
e 1233 1258
e 1233 1259
e 1233 1260
e 1233 1261
e 1233 1262
e 1233 1263
e 1233 1264
e 1233 1265
e 1233 1266
e 1233 1267
e 1233 1268
e 1233 1269
e 1233 1270
e 1233 1271
e 1233 1272
e 1233 1273
e 1233 1274
e 1233 1275
e 1276 1277
e 1276 1278
e 1276 1279
e 1276 1280
e 1276 1281
e 1276 1282
e 1276 1283
e 1276 1284
e 1276 1285
e 1276 1286
e 1276 1287
e 1276 1288
e 1276 1289
e 1276 1290
e 1276 1291
e 1276 1292
e 1276 1293
e 1276 1294
e 1276 1295
e 1276 1296
e 1276 1297
e 1276 1298
e 1276 1299
e 1276 1300
e 1276 1301
e 1276 1302
e 1276 1303
e 1276 1304
e 1276 1305
e 1276 1306
e 1276 1307
e 1276 1308
e 1276 1309
e 1276 1310
e 1276 1311
e 1276 1312
e 1276 1313
e 1276 1314
e 1276 1315
e 1276 1316
e 1276 1317
e 1276 1318
e 1276 1319
e 1276 1320
e 1276 1321
e 1276 1322
e 1276 1323
e 1276 1324
e 1276 1325
e 1276 1326
e 1276 1327
e 1328 1329
e 1328 1330
e 1328 1331
e 1328 1332
e 1328 1333
e 1328 1334
e 1328 1335
e 1328 1336
e 1328 1337
e 1328 1338
e 1328 1339
e 1328 1340
e 1328 1341
e 1328 1342
e 1328 1343
e 1328 1344
e 1328 1345
e 1328 1346
e 1328 1347
e 1328 1348
e 1349 1350
e 1349 1351
e 1349 1352
e 1349 1353
e 1349 1354
e 1349 1355
e 1349 1356
e 1349 1357
e 1349 1358
e 1349 1359
e 1349 1360
e 1349 1361
e 1349 1362
e 1349 1363
e 1349 1364
e 1349 1365
e 1349 1366
e 1349 1367
e 1349 1368
e 1349 1369
e 1349 1370
e 1349 1371
e 1349 1372
e 1349 1373
e 1349 1374
e 1349 1375
e 1349 1376
e 1349 1377
